c 2 of 3
c Two of the 3 literals should be true
c ========================================
p cnf 3 8
1 2 3 0
-1 -2 -3 0
-1 2 3 0
1 -2 3 0
1 2 -3 0
1 2 0
1 3 0
2 3 0

c The three possibilites
c ========================================
p cnf 3 3
-1 2 3 0
1 -2 3 0
1 2 -3 0
